100
32
14
24
20
5
27
8
27
28
20
15
9
9
20
3
6
25
13
6
2
16
2
21
1
1
2
4
1
2
4
17
2
1
3
1
2
1
3
1
2
1
2
17
2
1
1
1
1
1
2
2
3
1
1
7
1
2
1
2
1
19
1
2
4
1
1
2
1
1
1
2
2
2
19
2
3
19
1
1
3
2
1
1
4
1
1
17
2
2
3
1
1
2
1
3
1
3
17
2
4
1